Version identifier: 22.1.0.0 | 2022-03-09 | 1a383f8ce
CPXPARAM_Threads                                 1
CPXPARAM_MIP_Strategy_VariableSelect             3
CPXPARAM_TimeLimit                               599.99998385399999
1 of 1 MIP starts provided solutions.
MIP start 'm1' defined initial solution with objective 1.0000.
Tried aggregator 1 time.
MIP Presolve eliminated 15 rows and 0 columns.
MIP Presolve modified 6 coefficients.
Reduced MIP has 1005 rows, 2000 columns, and 24346 nonzeros.
Reduced MIP has 2000 binaries, 0 generals, 0 SOSs, and 0 indicators.
Presolve time = 0.02 sec. (13.05 ticks)
Probing time = 0.00 sec. (2.95 ticks)
Tried aggregator 1 time.
Detecting symmetries...
Reduced MIP has 1005 rows, 2000 columns, and 24346 nonzeros.
Reduced MIP has 2000 binaries, 0 generals, 0 SOSs, and 0 indicators.
Presolve time = 0.02 sec. (13.97 ticks)
Probing time = 0.00 sec. (2.95 ticks)
Clique table members: 494.
MIP emphasis: balance optimality and feasibility.
MIP search method: dynamic search.
Parallel mode: none, using 1 thread.
Root relaxation solution time = 0.16 sec. (163.78 ticks)

        Nodes                                         Cuts/
   Node  Left     Objective  IInf  Best Integer    Best Bound    ItCnt     Gap

*     0+    0                            1.0000     2000.0000              --- 
      0     0      100.0000   431        1.0000      100.0000     1609     --- 
*     0+    0                          100.0000      100.0000             0.00%
      0     0        cutoff            100.0000      100.0000     1609    0.00%
Elapsed time = 1.16 sec. (1208.05 ticks, tree = 0.01 MB, solutions = 2)

Root node processing (before b&c):
  Real time             =    1.16 sec. (1208.13 ticks)
Sequential b&c:
  Real time             =    0.00 sec. (0.00 ticks)
                          ------------
Total (root+branch&cut) =    1.16 sec. (1208.13 ticks)
Primal:	100
Dual:	100
Status:	Optimal
Time:	1.16
Sequence:
	16
	14
	3
	5
	19
	1
	5
	17
	1
	5
	9
	15
	5
	9
	13
	5
	0
	19
	10
	1
	17
	18
	0
	19
	5
	2
	14
	10
	6
	19
	16
	2
	17
	16
	3
	19
	5
	1
	17
	12
	10
	19
	6
	16
	17
	12
	10
	9
	4
	16
	7
	13
	5
	9
	15
	12
	11
	13
	0
	8
	15
	1
	11
	13
	3
	8
	4
	12
	11
	13
	6
	8
	4
	1
	5
	14
	2
	10
	14
	2
	16
	15
	9
	5
	15
	9
	18
	4
	3
	8
	4
	1
	11
	13
	6
	8
	15
	12
	5
	14
